data/solutions/recovery/wellformed/moderate/binding/wellformed_moderate_instance64/65.sol
Elapsed time: 0.03
Upper bound: 4869.0
Planning weighted value: 130800.0
C[0]=4869.0
C[1]=4866.0
C[2]=4860.0
C[3]=4849.0
C[4]=0.0
y[0]=0
y[1]=2
y[2]=1
y[3]=1
y[4]=2
y[5]=1
y[6]=0
y[7]=0
y[8]=1
y[9]=2
y[10]=1
y[11]=3
y[12]=2
y[13]=1
y[14]=0
y[15]=1
y[16]=0
y[17]=1
y[18]=3
y[19]=0
y[20]=3
y[21]=1
y[22]=3
y[23]=2
y[24]=3
y[25]=3
y[26]=2
y[27]=1
y[28]=1
y[29]=2
y[30]=3
y[31]=2
y[32]=3
y[33]=1
y[34]=0
y[35]=0
y[36]=3
y[37]=0
y[38]=2
y[39]=1
y[40]=3
